5	2	1	7	0	0	0	0	0	0	0	0	0	0	0	0	0	1	0	0	0
5	2	1	8	0	0	0	0	0	0	0	0	0	0	0	0	0	1	0	0	0
5	2	1	9	0	0	0	0	0	0	0	0	0	0	0	0	0	1	0	0	0
5	2	1	10	0	0	0	0	0	0	0	0	0	0	0	0	0	1	0	0	0
5	2	1	11	0	0	0	0	0	0	0	0	0	0	0	0	0	1	0	0	0
5	2	1	12	0	0	0	0	0	0	0	0	0	0	0	0	0	1	0	0	0
5	2	1	13	0	0	0	0	0	0	0	0	0	0	0	0	0	1	0	0	0
5	2	1	14	0	0	0	0	0	0	0	0	0	0	0	0	0	1	0	0	0
5	3	1	8	0	0	0	0	0	0	0	0	0	0	0	0	0	1	0	0	0
5	3	1	9	0	0	0	0	0	0	0	0	0	0	0	0	0	1	0	0	0
5	3	1	10	0	0	0	0	0	0	0	0	0	0	0	0	0	1	0	0	0
5	3	1	11	0	0	0	0	0	0	0	0	0	0	0	0	0	1	0	0	0
5	3	1	12	0	0	0	0	0	0	0	0	0	0	0	0	0	1	0	0	0
5	3	1	13	0	0	0	0	0	0	0	0	0	0	0	0	0	1	0	0	0
5	3	1	14	0	0	0	0	0	0	0	0	0	0	0	0	0	1	0	0	0
5	3	1	15	0	0	0	0	0	0	0	0	0	0	0	0	0	1	0	0	0
5	4	1	9	0	0	0	0	0	0	0	0	0	0	0	0	0	1	0	0	0
5	4	1	10	0	0	0	0	0	0	0	0	0	0	0	0	0	1	0	0	0
5	4	1	11	0	0	0	0	0	0	0	0	0	0	0	0	0	1	0	0	0
5	4	1	12	0	0	0	0	0	0	0	0	0	0	0	0	0	1	0	0	0
5	4	1	13	0	0	0	0	0	0	0	0	0	0	0	0	0	1	0	0	0
5	4	1	14	0	0	0	0	0	0	0	0	0	0	0	0	0	1	0	0	0
5	4	1	15	0	0	0	0	0	0	0	0	0	0	0	0	0	1	0	0	0
5	4	1	16	0	0	0	0	0	0	0	0	0	0	0	0	0	1	0	0	0
5	5	1	10	0	0	0	0	0	0	0	0	0	0	0	0	0	1	0	0	0
5	5	1	11	0	0	0	0	0	0	0	0	0	0	0	0	0	1	0	0	0
5	5	1	12	0	0	0	0	0	0	0	0	0	0	0	0	0	1	0	0	0
5	5	1	13	0	0	0	0	0	0	0	0	0	0	0	0	0	1	0	0	0
5	5	1	14	0	0	0	0	0	0	0	0	0	0	0	0	0	1	0	0	0
5	5	1	15	0	0	0	0	0	0	0	0	0	0	0	0	0	1	0	0	0
5	5	1	16	0	0	0	0	0	0	0	0	0	0	0	0	0	1	0	0	0
5	5	1	17	0	0	0	0	0	0	0	0	0	0	0	0	0	1	0	0	0
5	6	1	11	0	0	0	0	0	0	0	0	0	0	0	0	0	1	0	0	0
5	6	1	12	0	0	0	0	0	0	0	0	0	0	0	0	0	1	0	0	0
5	6	1	13	0	0	0	0	0	0	0	0	0	0	0	0	0	1	0	0	0
5	6	1	14	0	0	0	0	0	0	0	0	0	0	0	0	0	1	0	0	0
5	6	1	15	0	0	0	0	0	0	0	0	0	0	0	0	0	1	0	0	0
5	6	1	16	0	0	0	0	0	0	0	0	0	0	0	0	0	1	0	0	0
5	6	1	17	0	0	0	0	0	0	0	0	0	0	0	0	0	1	0	0	0
5	6	1	18	0	0	0	0	0	0	0	0	0	0	0	0	0	1	0	0	0
5	7	1	12	0	0	0	0	0	0	0	0	0	0	0	0	0	1	0	0	0
5	7	1	13	0	0	0	0	0	0	0	0	0	0	0	0	0	1	0	0	0
5	7	1	14	0	0	0	0	0	0	0	0	0	0	0	0	0	1	0	0	0
5	7	1	15	0	0	0	0	0	0	0	0	0	0	0	0	0	1	0	0	0
5	7	1	16	0	0	0	0	0	0	0	0	0	0	0	0	0	1	0	0	0
5	7	1	17	0	0	0	0	0	0	0	0	0	0	0	0	0	1	0	0	0
5	7	1	18	0	0	0	0	0	0	0	0	0	0	0	0	0	1	0	0	0
5	7	1	19	0	0	0	0	0	0	0	0	0	0	0	0	0	1	0	0	0
5	8	1	13	0	0	0	0	0	0	0	0	0	0	0	0	0	1	0	0	0
5	8	1	14	0	0	0	0	0	0	0	0	0	0	0	0	0	1	0	0	0
5	8	1	15	0	0	0	0	0	0	0	0	0	0	0	0	0	1	0	0	0
5	8	1	16	0	0	0	0	0	0	0	0	0	0	0	0	0	1	0	0	0
5	8	1	17	0	0	0	0	0	0	0	0	0	0	0	0	0	1	0	0	0
5	8	1	18	0	0	0	0	0	0	0	0	0	0	0	0	0	1	0	0	0
5	8	1	19	0	0	0	0	0	0	0	0	0	0	0	0	0	1	0	0	0
5	8	1	20	0	0	0	0	0	0	0	0	0	0	0	0	0	1	0	0	0
5	9	1	14	0	0	0	0	0	0	0	0	0	0	0	0	0	1	0	0	0
5	9	1	15	0	0	0	0	0	0	0	0	0	0	0	0	0	1	0	0	0
5	9	1	16	0	0	0	0	0	0	0	0	0	0	0	0	0	1	0	0	0
5	9	1	17	0	0	0	0	0	0	0	0	0	0	0	0	0	1	0	0	0
5	9	1	18	0	0	0	0	0	0	0	0	0	0	0	0	0	1	0	0	0
5	9	1	19	0	0	0	0	0	0	0	0	0	0	0	0	0	1	0	0	0
5	9	1	20	0	0	0	0	0	0	0	0	0	0	0	0	0	1	0	0	0
5	9	1	21	0	0	0	0	0	0	0	0	0	0	0	0	0	1	0	0	0
5	10	1	15	0	0	0	0	0	0	0	0	0	0	0	0	0	1	0	0	0
5	10	1	16	0	0	0	0	0	0	0	0	0	0	0	0	0	1	0	0	0
5	10	1	17	0	0	0	0	0	0	0	0	0	0	0	0	0	1	0	0	0
5	10	1	18	0	0	0	0	0	0	0	0	0	0	0	0	0	1	0	0	0
5	10	1	19	0	0	0	0	0	0	0	0	0	0	0	0	0	1	0	0	0
5	10	1	20	0	0	0	0	0	0	0	0	0	0	0	0	0	1	0	0	0
5	10	1	21	0	0	0	0	0	0	0	0	0	0	0	0	0	1	0	0	0
5	10	1	22	0	0	0	0	0	0	0	0	0	0	0	0	0	1	0	0	0
5	11	1	16	0	0	0	0	0	0	0	0	0	0	0	0	0	1	0	0	0
5	11	1	17	0	0	0	0	0	0	0	0	0	0	0	0	0	1	0	0	0
5	11	1	18	0	0	0	0	0	0	0	0	0	0	0	0	0	1	0	0	0
5	11	1	19	0	0	0	0	0	0	0	0	0	0	0	0	0	1	0	0	0
5	11	1	20	0	0	0	0	0	0	0	0	0	0	0	0	0	1	0	0	0
5	11	1	21	0	0	0	0	0	0	0	0	0	0	0	0	0	1	0	0	0
5	11	1	22	0	0	0	0	0	0	0	0	0	0	0	0	0	1	0	0	0
5	11	1	23	0	0	0	0	0	0	0	0	0	0	0	0	0	1	0	0	0
5	12	1	17	0	0	0	0	0	0	0	0	0	0	0	0	0	1	0	0	0
5	12	1	18	0	0	0	0	0	0	0	0	0	0	0	0	0	1	0	0	0
5	12	1	19	0	0	0	0	0	0	0	0	0	0	0	0	0	1	0	0	0
5	12	1	20	0	0	0	0	0	0	0	0	0	0	0	0	0	1	0	0	0
5	12	1	21	0	0	0	0	0	0	0	0	0	0	0	0	0	1	0	0	0
5	12	1	22	0	0	0	0	0	0	0	0	0	0	0	0	0	1	0	0	0
5	12	1	23	0	0	0	0	0	0	0	0	0	0	0	0	0	1	0	0	0
5	12	1	24	0	0	0	0	0	0	0	0	0	0	0	0	0	1	0	0	0
5	13	1	18	0	0	0	0	0	0	0	0	0	0	0	0	0	1	0	0	0
5	13	1	19	0	0	0	0	0	0	0	0	0	0	0	0	0	1	0	0	0
5	13	1	20	0	0	0	0	0	0	0	0	0	0	0	0	0	1	0	0	0
5	13	1	21	0	0	0	0	0	0	0	0	0	0	0	0	0	1	0	0	0
5	13	1	22	0	0	0	0	0	0	0	0	0	0	0	0	0	1	0	0	0
5	13	1	23	0	0	0	0	0	0	0	0	0	0	0	0	0	1	0	0	0
5	13	1	24	0	0	0	0	0	0	0	0	0	0	0	0	0	1	0	0	0
5	13	1	25	0	0	0	0	0	0	0	0	0	0	0	0	0	1	0	0	0
5	14	1	19	0	0	0	0	0	0	0	0	0	0	0	0	0	1	0	0	0
5	14	1	20	0	0	0	0	0	0	0	0	0	0	0	0	0	1	0	0	0
5	14	1	21	0	0	0	0	0	0	0	0	0	0	0	0	0	1	0	0	0
5	14	1	22	0	0	0	0	0	0	0	0	0	0	0	0	0	1	0	0	0
5	14	1	23	0	0	0	0	0	0	0	0	0	0	0	0	0	1	0	0	0
5	14	1	24	0	0	0	0	0	0	0	0	0	0	0	0	0	1	0	0	0
5	14	1	25	0	0	0	0	0	0	0	0	0	0	0	0	0	1	0	0	0
5	14	1	26	0	0	0	0	0	0	0	0	0	0	0	0	0	1	0	0	0
5	15	1	20	0	0	0	0	0	0	0	0	0	0	0	0	0	1	0	0	0
5	15	1	21	0	0	0	0	0	0	0	0	0	0	0	0	0	1	0	0	0
5	15	1	22	0	0	0	0	0	0	0	0	0	0	0	0	0	1	0	0	0
5	15	1	23	0	0	0	0	0	0	0	0	0	0	0	0	0	1	0	0	0
5	15	1	24	0	0	0	0	0	0	0	0	0	0	0	0	0	1	0	0	0
5	15	1	25	0	0	0	0	0	0	0	0	0	0	0	0	0	1	0	0	0
5	15	1	26	0	0	0	0	0	0	0	0	0	0	0	0	0	1	0	0	0
5	15	1	27	0	0	0	0	0	0	0	0	0	0	0	0	0	1	0	0	0
5	16	1	21	0	0	0	0	0	0	0	0	0	0	0	0	0	1	0	0	0
5	16	1	22	0	0	0	0	0	0	0	0	0	0	0	0	0	1	0	0	0
5	16	1	23	0	0	0	0	0	0	0	0	0	0	0	0	0	1	0	0	0
5	16	1	24	0	0	0	0	0	0	0	0	0	0	0	0	0	1	0	0	0
5	16	1	25	0	0	0	0	0	0	0	0	0	0	0	0	0	1	0	0	0
5	16	1	26	0	0	0	0	0	0	0	0	0	0	0	0	0	1	0	0	0
5	16	1	27	0	0	0	0	0	0	0	0	0	0	0	0	0	1	0	0	0
5	16	1	28	0	0	0	0	0	0	0	0	0	0	0	0	0	1	0	0	0
5	17	1	22	0	0	0	0	0	0	0	0	0	0	0	0	0	1	0	0	0
5	17	1	23	0	0	0	0	0	0	0	0	0	0	0	0	0	1	0	0	0
5	17	1	24	0	0	0	0	0	0	0	0	0	0	0	0	0	1	0	0	0
5	17	1	25	0	0	0	0	0	0	0	0	0	0	0	0	0	1	0	0	0
5	17	1	26	0	0	0	0	0	0	0	0	0	0	0	0	0	1	0	0	0
5	17	1	27	0	0	0	0	0	0	0	0	0	0	0	0	0	1	0	0	0
5	17	1	28	0	0	0	0	0	0	0	0	0	0	0	0	0	1	0	0	0
5	17	1	29	0	0	0	0	0	0	0	0	0	0	0	0	0	1	0	0	0
5	18	1	23	0	0	0	0	0	0	0	0	0	0	0	0	0	1	0	0	0
5	18	1	24	0	0	0	0	0	0	0	0	0	0	0	0	0	1	0	0	0
5	18	1	25	0	0	0	0	0	0	0	0	0	0	0	0	0	1	0	0	0
5	18	1	26	0	0	0	0	0	0	0	0	0	0	0	0	0	1	0	0	0
5	18	1	27	0	0	0	0	0	0	0	0	0	0	0	0	0	1	0	0	0
5	18	1	28	0	0	0	0	0	0	0	0	0	0	0	0	0	1	0	0	0
5	18	1	29	0	0	0	0	0	0	0	0	0	0	0	0	0	1	0	0	0
5	18	1	30	0	0	0	0	0	0	0	0	0	0	0	0	0	1	0	0	0
5	19	1	24	0	0	0	0	0	0	0	0	0	0	0	0	0	1	0	0	0
5	19	1	25	0	0	0	0	0	0	0	0	0	0	0	0	0	1	0	0	0
5	19	1	26	0	0	0	0	0	0	0	0	0	0	0	0	0	1	0	0	0
5	19	1	27	0	0	0	0	0	0	0	0	0	0	0	0	0	1	0	0	0
5	19	1	28	0	0	0	0	0	0	0	0	0	0	0	0	0	1	0	0	0
5	19	1	29	0	0	0	0	0	0	0	0	0	0	0	0	0	1	0	0	0
5	19	1	30	0	0	0	0	0	0	0	0	0	0	0	0	0	1	0	0	0
5	19	1	31	0	0	0	0	0	0	0	0	0	0	0	0	0	1	0	0	0
5	20	1	25	0	0	0	0	0	0	0	0	0	0	0	0	0	1	0	0	0
5	20	1	26	0	0	0	0	0	0	0	0	0	0	0	0	0	1	0	0	0
5	20	1	27	0	0	0	0	0	0	0	0	0	0	0	0	0	1	0	0	0
5	20	1	28	0	0	0	0	0	0	0	0	0	0	0	0	0	1	0	0	0
5	20	1	29	0	0	0	0	0	0	0	0	0	0	0	0	0	1	0	0	0
5	20	1	30	0	0	0	0	0	0	0	0	0	0	0	0	0	1	0	0	0
5	20	1	31	0	0	0	0	0	0	0	0	0	0	0	0	0	1	0	0	0
5	20	1	32	0	0	0	0	0	0	0	0	0	0	0	0	0	1	0	0	0
5	21	1	26	0	0	0	0	0	0	0	0	0	0	0	0	0	1	0	0	0
5	21	1	27	0	0	0	0	0	0	0	0	0	0	0	0	0	1	0	0	0
5	21	1	28	0	0	0	0	0	0	0	0	0	0	0	0	0	1	0	0	0
5	21	1	29	0	0	0	0	0	0	0	0	0	0	0	0	0	1	0	0	0
5	21	1	30	0	0	0	0	0	0	0	0	0	0	0	0	0	1	0	0	0
5	21	1	31	0	0	0	0	0	0	0	0	0	0	0	0	0	1	0	0	0
5	21	1	32	0	0	0	0	0	0	0	0	0	0	0	0	0	1	0	0	0
5	21	1	33	0	0	0	0	0	0	0	0	0	0	0	0	0	1	0	0	0
5	22	1	27	0	0	0	0	0	0	0	0	0	0	0	0	0	1	0	0	0
5	22	1	28	0	0	0	0	0	0	0	0	0	0	0	0	0	1	0	0	0
5	22	1	29	0	0	0	0	0	0	0	0	0	0	0	0	0	1	0	0	0
5	22	1	30	0	0	0	0	0	0	0	0	0	0	0	0	0	1	0	0	0
5	22	1	31	0	0	0	0	0	0	0	0	0	0	0	0	0	1	0	0	0
5	22	1	32	0	0	0	0	0	0	0	0	0	0	0	0	0	1	0	0	0
5	22	1	33	0	0	0	0	0	0	0	0	0	0	0	0	0	1	0	0	0
5	22	1	34	0	0	0	0	0	0	0	0	0	0	0	0	0	1	0	0	0
5	23	1	28	0	0	0	0	0	0	0	0	0	0	0	0	0	1	0	0	0
5	23	1	29	0	0	0	0	0	0	0	0	0	0	0	0	0	1	0	0	0
5	23	1	30	0	0	0	0	0	0	0	0	0	0	0	0	0	1	0	0	0
5	23	1	31	0	0	0	0	0	0	0	0	0	0	0	0	0	1	0	0	0
5	23	1	32	0	0	0	0	0	0	0	0	0	0	0	0	0	1	0	0	0
5	23	1	33	0	0	0	0	0	0	0	0	0	0	0	0	0	1	0	0	0
5	23	1	34	0	0	0	0	0	0	0	0	0	0	0	0	0	1	0	0	0
5	23	1	35	0	0	0	0	0	0	0	0	0	0	0	0	0	1	0	0	0
5	24	1	29	0	0	0	0	0	0	0	0	0	0	0	0	0	1	0	0	0
5	24	1	30	0	0	0	0	0	0	0	0	0	0	0	0	0	1	0	0	0
5	24	1	31	0	0	0	0	0	0	0	0	0	0	0	0	0	1	0	0	0
5	24	1	32	0	0	0	0	0	0	0	0	0	0	0	0	0	1	0	0	0
5	24	1	33	0	0	0	0	0	0	0	0	0	0	0	0	0	1	0	0	0
5	24	1	34	0	0	0	0	0	0	0	0	0	0	0	0	0	1	0	0	0
5	24	1	35	0	0	0	0	0	0	0	0	0	0	0	0	0	1	0	0	0
5	24	1	36	0	0	0	0	0	0	0	0	0	0	0	0	0	1	0	0	0
5	25	1	30	0	0	0	0	0	0	0	0	0	0	0	0	0	1	0	0	0
5	25	1	31	0	0	0	0	0	0	0	0	0	0	0	0	0	1	0	0	0
5	25	1	32	0	0	0	0	0	0	0	0	0	0	0	0	0	1	0	0	0
5	25	1	33	0	0	0	0	0	0	0	0	0	0	0	0	0	1	0	0	0
5	25	1	34	0	0	0	0	0	0	0	0	0	0	0	0	0	1	0	0	0
5	25	1	35	0	0	0	0	0	0	0	0	0	0	0	0	0	1	0	0	0
5	25	1	36	0	0	0	0	0	0	0	0	0	0	0	0	0	1	0	0	0
5	25	1	37	0	0	0	0	0	0	0	0	0	0	0	0	0	1	0	0	0
5	26	1	31	0	0	0	0	0	0	0	0	0	0	0	0	0	1	0	0	0
5	26	1	32	0	0	0	0	0	0	0	0	0	0	0	0	0	1	0	0	0
5	26	1	33	0	0	0	0	0	0	0	0	0	0	0	0	0	1	0	0	0
5	26	1	34	0	0	0	0	0	0	0	0	0	0	0	0	0	1	0	0	0
5	26	1	35	0	0	0	0	0	0	0	0	0	0	0	0	0	1	0	0	0
5	26	1	36	0	0	0	0	0	0	0	0	0	0	0	0	0	1	0	0	0
5	26	1	37	0	0	0	0	0	0	0	0	0	0	0	0	0	1	0	0	0
5	26	1	38	0	0	0	0	0	0	0	0	0	0	0	0	0	1	0	0	0
5	27	1	32	0	0	0	0	0	0	0	0	0	0	0	0	0	1	0	0	0
5	27	1	33	0	0	0	0	0	0	0	0	0	0	0	0	0	1	0	0	0
5	27	1	34	0	0	0	0	0	0	0	0	0	0	0	0	0	1	0	0	0
5	27	1	35	0	0	0	0	0	0	0	0	0	0	0	0	0	1	0	0	0
5	27	1	36	0	0	0	0	0	0	0	0	0	0	0	0	0	1	0	0	0
5	27	1	37	0	0	0	0	0	0	0	0	0	0	0	0	0	1	0	0	0
5	27	1	38	0	0	0	0	0	0	0	0	0	0	0	0	0	1	0	0	0
5	27	1	39	0	0	0	0	0	0	0	0	0	0	0	0	0	1	0	0	0
5	28	1	33	0	0	0	0	0	0	0	0	0	0	0	0	0	1	0	0	0
5	28	1	34	0	0	0	0	0	0	0	0	0	0	0	0	0	1	0	0	0
5	28	1	35	0	0	0	0	0	0	0	0	0	0	0	0	0	1	0	0	0
5	28	1	36	0	0	0	0	0	0	0	0	0	0	0	0	0	1	0	0	0
5	28	1	37	0	0	0	0	0	0	0	0	0	0	0	0	0	1	0	0	0
5	28	1	38	0	0	0	0	0	0	0	0	0	0	0	0	0	1	0	0	0
5	28	1	39	0	0	0	0	0	0	0	0	0	0	0	0	0	1	0	0	0
5	28	1	40	0	0	0	0	0	0	0	0	0	0	0	0	0	1	0	0	0
5	29	1	34	0	0	0	0	0	0	0	0	0	0	0	0	0	1	0	0	0
5	29	1	35	0	0	0	0	0	0	0	0	0	0	0	0	0	1	0	0	0
5	29	1	36	0	0	0	0	0	0	0	0	0	0	0	0	0	1	0	0	0
5	29	1	37	0	0	0	0	0	0	0	0	0	0	0	0	0	1	0	0	0
5	29	1	38	0	0	0	0	0	0	0	0	0	0	0	0	0	1	0	0	0
5	29	1	39	0	0	0	0	0	0	0	0	0	0	0	0	0	1	0	0	0
5	29	1	40	0	0	0	0	0	0	0	0	0	0	0	0	0	1	0	0	0
5	29	1	41	0	0	0	0	0	0	0	0	0	0	0	0	0	1	0	0	0
5	30	1	35	0	0	0	0	0	0	0	0	0	0	0	0	0	1	0	0	0
5	30	1	36	0	0	0	0	0	0	0	0	0	0	0	0	0	1	0	0	0
5	30	1	37	0	0	0	0	0	0	0	0	0	0	0	0	0	1	0	0	0
5	30	1	38	0	0	0	0	0	0	0	0	0	0	0	0	0	1	0	0	0
5	30	1	39	0	0	0	0	0	0	0	0	0	0	0	0	0	1	0	0	0
5	30	1	40	0	0	0	0	0	0	0	0	0	0	0	0	0	1	0	0	0
5	30	1	41	0	0	0	0	0	0	0	0	0	0	0	0	0	1	0	0	0
5	30	1	42	0	0	0	0	0	0	0	0	0	0	0	0	0	1	0	0	0
5	31	1	36	0	0	0	0	0	0	0	0	0	0	0	0	0	1	0	0	0
5	31	1	37	0	0	0	0	0	0	0	0	0	0	0	0	0	1	0	0	0
5	31	1	38	0	0	0	0	0	0	0	0	0	0	0	0	0	1	0	0	0
5	31	1	39	0	0	0	0	0	0	0	0	0	0	0	0	0	1	0	0	0
5	31	1	40	0	0	0	0	0	0	0	0	0	0	0	0	0	1	0	0	0
5	31	1	41	0	0	0	0	0	0	0	0	0	0	0	0	0	1	0	0	0
5	31	1	42	0	0	0	0	0	0	0	0	0	0	0	0	0	1	0	0	0
5	31	1	43	0	0	0	0	0	0	0	0	0	0	0	0	0	1	0	0	0
5	32	1	37	0	0	0	0	0	0	0	0	0	0	0	0	0	1	0	0	0
5	32	1	38	0	0	0	0	0	0	0	0	0	0	0	0	0	1	0	0	0
5	32	1	39	0	0	0	0	0	0	0	0	0	0	0	0	0	1	0	0	0
5	32	1	40	0	0	0	0	0	0	0	0	0	0	0	0	0	1	0	0	0
5	32	1	41	0	0	0	0	0	0	0	0	0	0	0	0	0	1	0	0	0
5	32	1	42	0	0	0	0	0	0	0	0	0	0	0	0	0	1	0	0	0
5	32	1	43	0	0	0	0	0	0	0	0	0	0	0	0	0	1	0	0	0
5	32	1	44	0	0	0	0	0	0	0	0	0	0	0	0	0	1	0	0	0
5	33	1	38	0	0	0	0	0	0	0	0	0	0	0	0	0	1	0	0	0
5	33	1	39	0	0	0	0	0	0	0	0	0	0	0	0	0	1	0	0	0
5	33	1	40	0	0	0	0	0	0	0	0	0	0	0	0	0	1	0	0	0
5	33	1	41	0	0	0	0	0	0	0	0	0	0	0	0	0	1	0	0	0
5	33	1	42	0	0	0	0	0	0	0	0	0	0	0	0	0	1	0	0	0
5	33	1	43	0	0	0	0	0	0	0	0	0	0	0	0	0	1	0	0	0
5	33	1	44	0	0	0	0	0	0	0	0	0	0	0	0	0	1	0	0	0
5	33	1	45	0	0	0	0	0	0	0	0	0	0	0	0	0	1	0	0	0
5	34	1	39	0	0	0	0	0	0	0	0	0	0	0	0	0	1	0	0	0
5	34	1	40	0	0	0	0	0	0	0	0	0	0	0	0	0	1	0	0	0
5	34	1	41	0	0	0	0	0	0	0	0	0	0	0	0	0	1	0	0	0
5	34	1	42	0	0	0	0	0	0	0	0	0	0	0	0	0	1	0	0	0
5	34	1	43	0	0	0	0	0	0	0	0	0	0	0	0	0	1	0	0	0
5	34	1	44	0	0	0	0	0	0	0	0	0	0	0	0	0	1	0	0	0
5	34	1	45	0	0	0	0	0	0	0	0	0	0	0	0	0	1	0	0	0
5	34	1	46	0	0	0	0	0	0	0	0	0	0	0	0	0	1	0	0	0
5	35	1	40	0	0	0	0	0	0	0	0	0	0	0	0	0	1	0	0	0
5	35	1	41	0	0	0	0	0	0	0	0	0	0	0	0	0	1	0	0	0
5	35	1	42	0	0	0	0	0	0	0	0	0	0	0	0	0	1	0	0	0
5	35	1	43	0	0	0	0	0	0	0	0	0	0	0	0	0	1	0	0	0
5	35	1	44	0	0	0	0	0	0	0	0	0	0	0	0	0	1	0	0	0
5	35	1	45	0	0	0	0	0	0	0	0	0	0	0	0	0	1	0	0	0
5	35	1	46	0	0	0	0	0	0	0	0	0	0	0	0	0	1	0	0	0
5	35	1	47	0	0	0	0	0	0	0	0	0	0	0	0	0	1	0	0	0
5	36	1	41	0	0	0	0	0	0	0	0	0	0	0	0	0	1	0	0	0
5	36	1	42	0	0	0	0	0	0	0	0	0	0	0	0	0	1	0	0	0
5	36	1	43	0	0	0	0	0	0	0	0	0	0	0	0	0	1	0	0	0
5	36	1	44	0	0	0	0	0	0	0	0	0	0	0	0	0	1	0	0	0
5	36	1	45	0	0	0	0	0	0	0	0	0	0	0	0	0	1	0	0	0
5	36	1	46	0	0	0	0	0	0	0	0	0	0	0	0	0	1	0	0	0
5	36	1	47	0	0	0	0	0	0	0	0	0	0	0	0	0	1	0	0	0
5	36	1	48	0	0	0	0	0	0	0	0	0	0	0	0	0	1	0	0	0
5	37	1	42	0	0	0	0	0	0	0	0	0	0	0	0	0	1	0	0	0
5	37	1	43	0	0	0	0	0	0	0	0	0	0	0	0	0	1	0	0	0
5	37	1	44	0	0	0	0	0	0	0	0	0	0	0	0	0	1	0	0	0
5	37	1	45	0	0	0	0	0	0	0	0	0	0	0	0	0	1	0	0	0
5	37	1	46	0	0	0	0	0	0	0	0	0	0	0	0	0	1	0	0	0
5	37	1	47	0	0	0	0	0	0	0	0	0	0	0	0	0	1	0	0	0
5	37	1	48	0	0	0	0	0	0	0	0	0	0	0	0	0	1	0	0	0
5	37	1	49	0	0	0	0	0	0	0	0	0	0	0	0	0	1	0	0	0
5	38	1	43	0	0	0	0	0	0	0	0	0	0	0	0	0	1	0	0	0
5	38	1	44	0	0	0	0	0	0	0	0	0	0	0	0	0	1	0	0	0
5	38	1	45	0	0	0	0	0	0	0	0	0	0	0	0	0	1	0	0	0
5	38	1	46	0	0	0	0	0	0	0	0	0	0	0	0	0	1	0	0	0
5	38	1	47	0	0	0	0	0	0	0	0	0	0	0	0	0	1	0	0	0
5	38	1	48	0	0	0	0	0	0	0	0	0	0	0	0	0	1	0	0	0
5	38	1	49	0	0	0	0	0	0	0	0	0	0	0	0	0	1	0	0	0
5	38	1	50	0	0	0	0	0	0	0	0	0	0	0	0	0	1	0	0	0
5	39	1	44	0	0	0	0	0	0	0	0	0	0	0	0	0	1	0	0	0
5	39	1	45	0	0	0	0	0	0	0	0	0	0	0	0	0	1	0	0	0
5	39	1	46	0	0	0	0	0	0	0	0	0	0	0	0	0	1	0	0	0
5	39	1	47	0	0	0	0	0	0	0	0	0	0	0	0	0	1	0	0	0
5	39	1	48	0	0	0	0	0	0	0	0	0	0	0	0	0	1	0	0	0
5	39	1	49	0	0	0	0	0	0	0	0	0	0	0	0	0	1	0	0	0
5	39	1	50	0	0	0	0	0	0	0	0	0	0	0	0	0	1	0	0	0
5	39	1	51	0	0	0	0	0	0	0	0	0	0	0	0	0	1	0	0	0
5	40	1	45	0	0	0	0	0	0	0	0	0	0	0	0	0	1	0	0	0
5	40	1	46	0	0	0	0	0	0	0	0	0	0	0	0	0	1	0	0	0
5	40	1	47	0	0	0	0	0	0	0	0	0	0	0	0	0	1	0	0	0
5	40	1	48	0	0	0	0	0	0	0	0	0	0	0	0	0	1	0	0	0
5	40	1	49	0	0	0	0	0	0	0	0	0	0	0	0	0	1	0	0	0
5	40	1	50	0	0	0	0	0	0	0	0	0	0	0	0	0	1	0	0	0
5	40	1	51	0	0	0	0	0	0	0	0	0	0	0	0	0	1	0	0	0
5	40	1	52	0	0	0	0	0	0	0	0	0	0	0	0	0	1	0	0	0
5	41	1	46	0	0	0	0	0	0	0	0	0	0	0	0	0	1	0	0	0
5	41	1	47	0	0	0	0	0	0	0	0	0	0	0	0	0	1	0	0	0
5	41	1	48	0	0	0	0	0	0	0	0	0	0	0	0	0	1	0	0	0
5	41	1	49	0	0	0	0	0	0	0	0	0	0	0	0	0	1	0	0	0
5	41	1	50	0	0	0	0	0	0	0	0	0	0	0	0	0	1	0	0	0
5	41	1	51	0	0	0	0	0	0	0	0	0	0	0	0	0	1	0	0	0
5	41	1	52	0	0	0	0	0	0	0	0	0	0	0	0	0	1	0	0	0
5	41	1	53	0	0	0	0	0	0	0	0	0	0	0	0	0	1	0	0	0
5	42	1	47	0	0	0	0	0	0	0	0	0	0	0	0	0	1	0	0	0
5	42	1	48	0	0	0	0	0	0	0	0	0	0	0	0	0	1	0	0	0
5	42	1	49	0	0	0	0	0	0	0	0	0	0	0	0	0	1	0	0	0
5	42	1	50	0	0	0	0	0	0	0	0	0	0	0	0	0	1	0	0	0
5	42	1	51	0	0	0	0	0	0	0	0	0	0	0	0	0	1	0	0	0
5	42	1	52	0	0	0	0	0	0	0	0	0	0	0	0	0	1	0	0	0
5	42	1	53	0	0	0	0	0	0	0	0	0	0	0	0	0	1	0	0	0
5	42	1	54	0	0	0	0	0	0	0	0	0	0	0	0	0	1	0	0	0
5	43	1	48	0	0	0	0	0	0	0	0	0	0	0	0	0	1	0	0	0
5	43	1	49	0	0	0	0	0	0	0	0	0	0	0	0	0	1	0	0	0
5	43	1	50	0	0	0	0	0	0	0	0	0	0	0	0	0	1	0	0	0
5	43	1	51	0	0	0	0	0	0	0	0	0	0	0	0	0	1	0	0	0
5	43	1	52	0	0	0	0	0	0	0	0	0	0	0	0	0	1	0	0	0
5	43	1	53	0	0	0	0	0	0	0	0	0	0	0	0	0	1	0	0	0
5	43	1	54	0	0	0	0	0	0	0	0	0	0	0	0	0	1	0	0	0
5	43	1	55	0	0	0	0	0	0	0	0	0	0	0	0	0	1	0	0	0
5	44	1	49	0	0	0	0	0	0	0	0	0	0	0	0	0	1	0	0	0
5	44	1	50	0	0	0	0	0	0	0	0	0	0	0	0	0	1	0	0	0
5	44	1	51	0	0	0	0	0	0	0	0	0	0	0	0	0	1	0	0	0
5	44	1	52	0	0	0	0	0	0	0	0	0	0	0	0	0	1	0	0	0
5	44	1	53	0	0	0	0	0	0	0	0	0	0	0	0	0	1	0	0	0
5	44	1	54	0	0	0	0	0	0	0	0	0	0	0	0	0	1	0	0	0
5	44	1	55	0	0	0	0	0	0	0	0	0	0	0	0	0	1	0	0	0
5	44	1	56	0	0	0	0	0	0	0	0	0	0	0	0	0	1	0	0	0
5	45	1	50	0	0	0	0	0	0	0	0	0	0	0	0	0	1	0	0	0
5	45	1	51	0	0	0	0	0	0	0	0	0	0	0	0	0	1	0	0	0
5	45	1	52	0	0	0	0	0	0	0	0	0	0	0	0	0	1	0	0	0
5	45	1	53	0	0	0	0	0	0	0	0	0	0	0	0	0	1	0	0	0
5	45	1	54	0	0	0	0	0	0	0	0	0	0	0	0	0	1	0	0	0
5	45	1	55	0	0	0	0	0	0	0	0	0	0	0	0	0	1	0	0	0
5	45	1	56	0	0	0	0	0	0	0	0	0	0	0	0	0	1	0	0	0
5	45	1	57	0	0	0	0	0	0	0	0	0	0	0	0	0	1	0	0	0
5	46	1	51	0	0	0	0	0	0	0	0	0	0	0	0	0	1	0	0	0
5	46	1	52	0	0	0	0	0	0	0	0	0	0	0	0	0	1	0	0	0
5	46	1	53	0	0	0	0	0	0	0	0	0	0	0	0	0	1	0	0	0
5	46	1	54	0	0	0	0	0	0	0	0	0	0	0	0	0	1	0	0	0
5	46	1	55	0	0	0	0	0	0	0	0	0	0	0	0	0	1	0	0	0
5	46	1	56	0	0	0	0	0	0	0	0	0	0	0	0	0	1	0	0	0
5	46	1	57	0	0	0	0	0	0	0	0	0	0	0	0	0	1	0	0	0
5	46	1	58	0	0	0	0	0	0	0	0	0	0	0	0	0	1	0	0	0
5	47	1	52	0	0	0	0	0	0	0	0	0	0	0	0	0	1	0	0	0
5	47	1	53	0	0	0	0	0	0	0	0	0	0	0	0	0	1	0	0	0
5	47	1	54	0	0	0	0	0	0	0	0	0	0	0	0	0	1	0	0	0
5	47	1	55	0	0	0	0	0	0	0	0	0	0	0	0	0	1	0	0	0
5	47	1	56	0	0	0	0	0	0	0	0	0	0	0	0	0	1	0	0	0
5	47	1	57	0	0	0	0	0	0	0	0	0	0	0	0	0	1	0	0	0
5	47	1	58	0	0	0	0	0	0	0	0	0	0	0	0	0	1	0	0	0
5	47	1	59	0	0	0	0	0	0	0	0	0	0	0	0	0	1	0	0	0
5	48	1	53	0	0	0	0	0	0	0	0	0	0	0	0	0	1	0	0	0
5	48	1	54	0	0	0	0	0	0	0	0	0	0	0	0	0	1	0	0	0
5	48	1	55	0	0	0	0	0	0	0	0	0	0	0	0	0	1	0	0	0
5	48	1	56	0	0	0	0	0	0	0	0	0	0	0	0	0	1	0	0	0
5	48	1	57	0	0	0	0	0	0	0	0	0	0	0	0	0	1	0	0	0
5	48	1	58	0	0	0	0	0	0	0	0	0	0	0	0	0	1	0	0	0
5	48	1	59	0	0	0	0	0	0	0	0	0	0	0	0	0	1	0	0	0
5	48	1	60	0	0	0	0	0	0	0	0	0	0	0	0	0	1	0	0	0
5	49	1	54	0	0	0	0	0	0	0	0	0	0	0	0	0	1	0	0	0
5	49	1	55	0	0	0	0	0	0	0	0	0	0	0	0	0	1	0	0	0
5	49	1	56	0	0	0	0	0	0	0	0	0	0	0	0	0	1	0	0	0
5	49	1	57	0	0	0	0	0	0	0	0	0	0	0	0	0	1	0	0	0
5	49	1	58	0	0	0	0	0	0	0	0	0	0	0	0	0	1	0	0	0
5	49	1	59	0	0	0	0	0	0	0	0	0	0	0	0	0	1	0	0	0
5	49	1	60	0	0	0	0	0	0	0	0	0	0	0	0	0	1	0	0	0
5	49	1	61	0	0	0	0	0	0	0	0	0	0	0	0	0	1	0	0	0
5	50	1	55	0	0	0	0	0	0	0	0	0	0	0	0	0	1	0	0	0
5	50	1	56	0	0	0	0	0	0	0	0	0	0	0	0	0	1	0	0	0
5	50	1	57	0	0	0	0	0	0	0	0	0	0	0	0	0	1	0	0	0
5	50	1	58	0	0	0	0	0	0	0	0	0	0	0	0	0	1	0	0	0
5	50	1	59	0	0	0	0	0	0	0	0	0	0	0	0	0	1	0	0	0
5	50	1	60	0	0	0	0	0	0	0	0	0	0	0	0	0	1	0	0	0
5	50	1	61	0	0	0	0	0	0	0	0	0	0	0	0	0	1	0	0	0
5	50	1	62	0	0	0	0	0	0	0	0	0	0	0	0	0	1	0	0	0
5	51	1	56	0	0	0	0	0	0	0	0	0	0	0	0	0	1	0	0	0
5	51	1	57	0	0	0	0	0	0	0	0	0	0	0	0	0	1	0	0	0
5	51	1	58	0	0	0	0	0	0	0	0	0	0	0	0	0	1	0	0	0
5	51	1	59	0	0	0	0	0	0	0	0	0	0	0	0	0	1	0	0	0
5	51	1	60	0	0	0	0	0	0	0	0	0	0	0	0	0	1	0	0	0
5	51	1	61	0	0	0	0	0	0	0	0	0	0	0	0	0	1	0	0	0
5	51	1	62	0	0	0	0	0	0	0	0	0	0	0	0	0	1	0	0	0
5	51	1	63	0	0	0	0	0	0	0	0	0	0	0	0	0	1	0	0	0
5	52	1	57	0	0	0	0	0	0	0	0	0	0	0	0	0	1	0	0	0
5	52	1	58	0	0	0	0	0	0	0	0	0	0	0	0	0	1	0	0	0
5	52	1	59	0	0	0	0	0	0	0	0	0	0	0	0	0	1	0	0	0
5	52	1	60	0	0	0	0	0	0	0	0	0	0	0	0	0	1	0	0	0
5	52	1	61	0	0	0	0	0	0	0	0	0	0	0	0	0	1	0	0	0
5	52	1	62	0	0	0	0	0	0	0	0	0	0	0	0	0	1	0	0	0
5	52	1	63	0	0	0	0	0	0	0	0	0	0	0	0	0	1	0	0	0
5	52	1	64	0	0	0	0	0	0	0	0	0	0	0	0	0	1	0	0	0
5	53	1	58	0	0	0	0	0	0	0	0	0	0	0	0	0	1	0	0	0
5	53	1	59	0	0	0	0	0	0	0	0	0	0	0	0	0	1	0	0	0
5	53	1	60	0	0	0	0	0	0	0	0	0	0	0	0	0	1	0	0	0
5	53	1	61	0	0	0	0	0	0	0	0	0	0	0	0	0	1	0	0	0
5	53	1	62	0	0	0	0	0	0	0	0	0	0	0	0	0	1	0	0	0
5	53	1	63	0	0	0	0	0	0	0	0	0	0	0	0	0	1	0	0	0
5	53	1	64	0	0	0	0	0	0	0	0	0	0	0	0	0	1	0	0	0
5	53	1	65	0	0	0	0	0	0	0	0	0	0	0	0	0	1	0	0	0
5	54	1	59	0	0	0	0	0	0	0	0	0	0	0	0	0	1	0	0	0
5	54	1	60	0	0	0	0	0	0	0	0	0	0	0	0	0	1	0	0	0
5	54	1	61	0	0	0	0	0	0	0	0	0	0	0	0	0	1	0	0	0
5	54	1	62	0	0	0	0	0	0	0	0	0	0	0	0	0	1	0	0	0
5	54	1	63	0	0	0	0	0	0	0	0	0	0	0	0	0	1	0	0	0
5	54	1	64	0	0	0	0	0	0	0	0	0	0	0	0	0	1	0	0	0
5	54	1	65	0	0	0	0	0	0	0	0	0	0	0	0	0	1	0	0	0
5	54	1	66	0	0	0	0	0	0	0	0	0	0	0	0	0	1	0	0	0
5	55	1	60	0	0	0	0	0	0	0	0	0	0	0	0	0	1	0	0	0
5	55	1	61	0	0	0	0	0	0	0	0	0	0	0	0	0	1	0	0	0
5	55	1	62	0	0	0	0	0	0	0	0	0	0	0	0	0	1	0	0	0
5	55	1	63	0	0	0	0	0	0	0	0	0	0	0	0	0	1	0	0	0
5	55	1	64	0	0	0	0	0	0	0	0	0	0	0	0	0	1	0	0	0
5	55	1	65	0	0	0	0	0	0	0	0	0	0	0	0	0	1	0	0	0
5	55	1	66	0	0	0	0	0	0	0	0	0	0	0	0	0	1	0	0	0
5	55	1	67	0	0	0	0	0	0	0	0	0	0	0	0	0	1	0	0	0
5	56	1	61	0	0	0	0	0	0	0	0	0	0	0	0	0	1	0	0	0
5	56	1	62	0	0	0	0	0	0	0	0	0	0	0	0	0	1	0	0	0
5	56	1	63	0	0	0	0	0	0	0	0	0	0	0	0	0	1	0	0	0
5	56	1	64	0	0	0	0	0	0	0	0	0	0	0	0	0	1	0	0	0
5	56	1	65	0	0	0	0	0	0	0	0	0	0	0	0	0	1	0	0	0
5	56	1	66	0	0	0	0	0	0	0	0	0	0	0	0	0	1	0	0	0
5	56	1	67	0	0	0	0	0	0	0	0	0	0	0	0	0	1	0	0	0
5	56	1	68	0	0	0	0	0	0	0	0	0	0	0	0	0	1	0	0	0
5	57	1	62	0	0	0	0	0	0	0	0	0	0	0	0	0	1	0	0	0
5	57	1	63	0	0	0	0	0	0	0	0	0	0	0	0	0	1	0	0	0
5	57	1	64	0	0	0	0	0	0	0	0	0	0	0	0	0	1	0	0	0
5	57	1	65	0	0	0	0	0	0	0	0	0	0	0	0	0	1	0	0	0
5	57	1	66	0	0	0	0	0	0	0	0	0	0	0	0	0	1	0	0	0
5	57	1	67	0	0	0	0	0	0	0	0	0	0	0	0	0	1	0	0	0
5	57	1	68	0	0	0	0	0	0	0	0	0	0	0	0	0	1	0	0	0
5	57	1	69	0	0	0	0	0	0	0	0	0	0	0	0	0	1	0	0	0
5	58	1	63	0	0	0	0	0	0	0	0	0	0	0	0	0	1	0	0	0
5	58	1	64	0	0	0	0	0	0	0	0	0	0	0	0	0	1	0	0	0
5	58	1	65	0	0	0	0	0	0	0	0	0	0	0	0	0	1	0	0	0
5	58	1	66	0	0	0	0	0	0	0	0	0	0	0	0	0	1	0	0	0
5	58	1	67	0	0	0	0	0	0	0	0	0	0	0	0	0	1	0	0	0
5	58	1	68	0	0	0	0	0	0	0	0	0	0	0	0	0	1	0	0	0
5	58	1	69	0	0	0	0	0	0	0	0	0	0	0	0	0	1	0	0	0
5	58	1	70	0	0	0	0	0	0	0	0	0	0	0	0	0	1	0	0	0
5	59	1	64	0	0	0	0	0	0	0	0	0	0	0	0	0	1	0	0	0
5	59	1	65	0	0	0	0	0	0	0	0	0	0	0	0	0	1	0	0	0
5	59	1	66	0	0	0	0	0	0	0	0	0	0	0	0	0	1	0	0	0
5	59	1	67	0	0	0	0	0	0	0	0	0	0	0	0	0	1	0	0	0
5	59	1	68	0	0	0	0	0	0	0	0	0	0	0	0	0	1	0	0	0
5	59	1	69	0	0	0	0	0	0	0	0	0	0	0	0	0	1	0	0	0
5	59	1	70	0	0	0	0	0	0	0	0	0	0	0	0	0	1	0	0	0
5	59	1	71	0	0	0	0	0	0	0	0	0	0	0	0	0	1	0	0	0
5	60	1	65	0	0	0	0	0	0	0	0	0	0	0	0	0	1	0	0	0
5	60	1	66	0	0	0	0	0	0	0	0	0	0	0	0	0	1	0	0	0
5	60	1	67	0	0	0	0	0	0	0	0	0	0	0	0	0	1	0	0	0
5	60	1	68	0	0	0	0	0	0	0	0	0	0	0	0	0	1	0	0	0
5	60	1	69	0	0	0	0	0	0	0	0	0	0	0	0	0	1	0	0	0
5	60	1	70	0	0	0	0	0	0	0	0	0	0	0	0	0	1	0	0	0
5	60	1	71	0	0	0	0	0	0	0	0	0	0	0	0	0	1	0	0	0
5	60	1	72	0	0	0	0	0	0	0	0	0	0	0	0	0	1	0	0	0
5	61	1	66	0	0	0	0	0	0	0	0	0	0	0	0	0	1	0	0	0
5	61	1	67	0	0	0	0	0	0	0	0	0	0	0	0	0	1	0	0	0
5	61	1	68	0	0	0	0	0	0	0	0	0	0	0	0	0	1	0	0	0
5	61	1	69	0	0	0	0	0	0	0	0	0	0	0	0	0	1	0	0	0
5	61	1	70	0	0	0	0	0	0	0	0	0	0	0	0	0	1	0	0	0
5	61	1	71	0	0	0	0	0	0	0	0	0	0	0	0	0	1	0	0	0
5	61	1	72	0	0	0	0	0	0	0	0	0	0	0	0	0	1	0	0	0
5	61	1	73	0	0	0	0	0	0	0	0	0	0	0	0	0	1	0	0	0
5	62	1	67	0	0	0	0	0	0	0	0	0	0	0	0	0	1	0	0	0
5	62	1	68	0	0	0	0	0	0	0	0	0	0	0	0	0	1	0	0	0
5	62	1	69	0	0	0	0	0	0	0	0	0	0	0	0	0	1	0	0	0
5	62	1	70	0	0	0	0	0	0	0	0	0	0	0	0	0	1	0	0	0
5	62	1	71	0	0	0	0	0	0	0	0	0	0	0	0	0	1	0	0	0
5	62	1	72	0	0	0	0	0	0	0	0	0	0	0	0	0	1	0	0	0
5	62	1	73	0	0	0	0	0	0	0	0	0	0	0	0	0	1	0	0	0
5	62	1	74	0	0	0	0	0	0	0	0	0	0	0	0	0	1	0	0	0
5	63	1	68	0	0	0	0	0	0	0	0	0	0	0	0	0	1	0	0	0
5	63	1	69	0	0	0	0	0	0	0	0	0	0	0	0	0	1	0	0	0
5	63	1	70	0	0	0	0	0	0	0	0	0	0	0	0	0	1	0	0	0
5	63	1	71	0	0	0	0	0	0	0	0	0	0	0	0	0	1	0	0	0
5	63	1	72	0	0	0	0	0	0	0	0	0	0	0	0	0	1	0	0	0
5	63	1	73	0	0	0	0	0	0	0	0	0	0	0	0	0	1	0	0	0
5	63	1	74	0	0	0	0	0	0	0	0	0	0	0	0	0	1	0	0	0
5	63	1	75	0	0	0	0	0	0	0	0	0	0	0	0	0	1	0	0	0
5	64	1	69	0	0	0	0	0	0	0	0	0	0	0	0	0	1	0	0	0
5	64	1	70	0	0	0	0	0	0	0	0	0	0	0	0	0	1	0	0	0
5	64	1	71	0	0	0	0	0	0	0	0	0	0	0	0	0	1	0	0	0
5	64	1	72	0	0	0	0	0	0	0	0	0	0	0	0	0	1	0	0	0
5	64	1	73	0	0	0	0	0	0	0	0	0	0	0	0	0	1	0	0	0
5	64	1	74	0	0	0	0	0	0	0	0	0	0	0	0	0	1	0	0	0
5	64	1	75	0	0	0	0	0	0	0	0	0	0	0	0	0	1	0	0	0
5	64	1	76	0	0	0	0	0	0	0	0	0	0	0	0	0	1	0	0	0
5	65	1	70	0	0	0	0	0	0	0	0	0	0	0	0	0	1	0	0	0
5	65	1	71	0	0	0	0	0	0	0	0	0	0	0	0	0	1	0	0	0
5	65	1	72	0	0	0	0	0	0	0	0	0	0	0	0	0	1	0	0	0
5	65	1	73	0	0	0	0	0	0	0	0	0	0	0	0	0	1	0	0	0
5	65	1	74	0	0	0	0	0	0	0	0	0	0	0	0	0	1	0	0	0
5	65	1	75	0	0	0	0	0	0	0	0	0	0	0	0	0	1	0	0	0
5	65	1	76	0	0	0	0	0	0	0	0	0	0	0	0	0	1	0	0	0
5	65	1	77	0	0	0	0	0	0	0	0	0	0	0	0	0	1	0	0	0
5	66	1	71	0	0	0	0	0	0	0	0	0	0	0	0	0	1	0	0	0
5	66	1	72	0	0	0	0	0	0	0	0	0	0	0	0	0	1	0	0	0
5	66	1	73	0	0	0	0	0	0	0	0	0	0	0	0	0	1	0	0	0
5	66	1	74	0	0	0	0	0	0	0	0	0	0	0	0	0	1	0	0	0
5	66	1	75	0	0	0	0	0	0	0	0	0	0	0	0	0	1	0	0	0
5	66	1	76	0	0	0	0	0	0	0	0	0	0	0	0	0	1	0	0	0
5	66	1	77	0	0	0	0	0	0	0	0	0	0	0	0	0	1	0	0	0
5	66	1	78	0	0	0	0	0	0	0	0	0	0	0	0	0	1	0	0	0
5	67	1	72	0	0	0	0	0	0	0	0	0	0	0	0	0	1	0	0	0
5	67	1	73	0	0	0	0	0	0	0	0	0	0	0	0	0	1	0	0	0
5	67	1	74	0	0	0	0	0	0	0	0	0	0	0	0	0	1	0	0	0
5	67	1	75	0	0	0	0	0	0	0	0	0	0	0	0	0	1	0	0	0
5	67	1	76	0	0	0	0	0	0	0	0	0	0	0	0	0	1	0	0	0
5	67	1	77	0	0	0	0	0	0	0	0	0	0	0	0	0	1	0	0	0
5	67	1	78	0	0	0	0	0	0	0	0	0	0	0	0	0	1	0	0	0
5	67	1	79	0	0	0	0	0	0	0	0	0	0	0	0	0	1	0	0	0
5	68	1	73	0	0	0	0	0	0	0	0	0	0	0	0	0	1	0	0	0
5	68	1	74	0	0	0	0	0	0	0	0	0	0	0	0	0	1	0	0	0
5	68	1	75	0	0	0	0	0	0	0	0	0	0	0	0	0	1	0	0	0
5	68	1	76	0	0	0	0	0	0	0	0	0	0	0	0	0	1	0	0	0
5	68	1	77	0	0	0	0	0	0	0	0	0	0	0	0	0	1	0	0	0
5	68	1	78	0	0	0	0	0	0	0	0	0	0	0	0	0	1	0	0	0
5	68	1	79	0	0	0	0	0	0	0	0	0	0	0	0	0	1	0	0	0
5	68	1	80	0	0	0	0	0	0	0	0	0	0	0	0	0	1	0	0	0
5	69	1	74	0	0	0	0	0	0	0	0	0	0	0	0	0	1	0	0	0
5	69	1	75	0	0	0	0	0	0	0	0	0	0	0	0	0	1	0	0	0
5	69	1	76	0	0	0	0	0	0	0	0	0	0	0	0	0	1	0	0	0
5	69	1	77	0	0	0	0	0	0	0	0	0	0	0	0	0	1	0	0	0
5	69	1	78	0	0	0	0	0	0	0	0	0	0	0	0	0	1	0	0	0
5	69	1	79	0	0	0	0	0	0	0	0	0	0	0	0	0	1	0	0	0
5	69	1	80	0	0	0	0	0	0	0	0	0	0	0	0	0	1	0	0	0
5	69	1	81	0	0	0	0	0	0	0	0	0	0	0	0	0	1	0	0	0
5	70	1	75	0	0	0	0	0	0	0	0	0	0	0	0	0	1	0	0	0
5	70	1	76	0	0	0	0	0	0	0	0	0	0	0	0	0	1	0	0	0
5	70	1	77	0	0	0	0	0	0	0	0	0	0	0	0	0	1	0	0	0
5	70	1	78	0	0	0	0	0	0	0	0	0	0	0	0	0	1	0	0	0
5	70	1	79	0	0	0	0	0	0	0	0	0	0	0	0	0	1	0	0	0
5	70	1	80	0	0	0	0	0	0	0	0	0	0	0	0	0	1	0	0	0
5	70	1	81	0	0	0	0	0	0	0	0	0	0	0	0	0	1	0	0	0
5	70	1	82	0	0	0	0	0	0	0	0	0	0	0	0	0	1	0	0	0
5	71	1	76	0	0	0	0	0	0	0	0	0	0	0	0	0	1	0	0	0
5	71	1	77	0	0	0	0	0	0	0	0	0	0	0	0	0	1	0	0	0
5	71	1	78	0	0	0	0	0	0	0	0	0	0	0	0	0	1	0	0	0
5	71	1	79	0	0	0	0	0	0	0	0	0	0	0	0	0	1	0	0	0
5	71	1	80	0	0	0	0	0	0	0	0	0	0	0	0	0	1	0	0	0
5	71	1	81	0	0	0	0	0	0	0	0	0	0	0	0	0	1	0	0	0
5	71	1	82	0	0	0	0	0	0	0	0	0	0	0	0	0	1	0	0	0
5	71	1	83	0	0	0	0	0	0	0	0	0	0	0	0	0	1	0	0	0
5	72	1	77	0	0	0	0	0	0	0	0	0	0	0	0	0	1	0	0	0
5	72	1	78	0	0	0	0	0	0	0	0	0	0	0	0	0	1	0	0	0
5	72	1	79	0	0	0	0	0	0	0	0	0	0	0	0	0	1	0	0	0
5	72	1	80	0	0	0	0	0	0	0	0	0	0	0	0	0	1	0	0	0
5	72	1	81	0	0	0	0	0	0	0	0	0	0	0	0	0	1	0	0	0
5	72	1	82	0	0	0	0	0	0	0	0	0	0	0	0	0	1	0	0	0
5	72	1	83	0	0	0	0	0	0	0	0	0	0	0	0	0	1	0	0	0
5	72	1	84	0	0	0	0	0	0	0	0	0	0	0	0	0	1	0	0	0
5	73	1	78	0	0	0	0	0	0	0	0	0	0	0	0	0	1	0	0	0
5	73	1	79	0	0	0	0	0	0	0	0	0	0	0	0	0	1	0	0	0
5	73	1	80	0	0	0	0	0	0	0	0	0	0	0	0	0	1	0	0	0
5	73	1	81	0	0	0	0	0	0	0	0	0	0	0	0	0	1	0	0	0
5	73	1	82	0	0	0	0	0	0	0	0	0	0	0	0	0	1	0	0	0
5	73	1	83	0	0	0	0	0	0	0	0	0	0	0	0	0	1	0	0	0
5	73	1	84	0	0	0	0	0	0	0	0	0	0	0	0	0	1	0	0	0
5	73	1	85	0	0	0	0	0	0	0	0	0	0	0	0	0	1	0	0	0
5	74	1	79	0	0	0	0	0	0	0	0	0	0	0	0	0	1	0	0	0
5	74	1	80	0	0	0	0	0	0	0	0	0	0	0	0	0	1	0	0	0
5	74	1	81	0	0	0	0	0	0	0	0	0	0	0	0	0	1	0	0	0
5	74	1	82	0	0	0	0	0	0	0	0	0	0	0	0	0	1	0	0	0
5	74	1	83	0	0	0	0	0	0	0	0	0	0	0	0	0	1	0	0	0
5	74	1	84	0	0	0	0	0	0	0	0	0	0	0	0	0	1	0	0	0
5	74	1	85	0	0	0	0	0	0	0	0	0	0	0	0	0	1	0	0	0
5	74	1	86	0	0	0	0	0	0	0	0	0	0	0	0	0	1	0	0	0
5	75	1	80	0	0	0	0	0	0	0	0	0	0	0	0	0	1	0	0	0
5	75	1	81	0	0	0	0	0	0	0	0	0	0	0	0	0	1	0	0	0
5	75	1	82	0	0	0	0	0	0	0	0	0	0	0	0	0	1	0	0	0
5	75	1	83	0	0	0	0	0	0	0	0	0	0	0	0	0	1	0	0	0
5	75	1	84	0	0	0	0	0	0	0	0	0	0	0	0	0	1	0	0	0
5	75	1	85	0	0	0	0	0	0	0	0	0	0	0	0	0	1	0	0	0
5	75	1	86	0	0	0	0	0	0	0	0	0	0	0	0	0	1	0	0	0
5	75	1	87	0	0	0	0	0	0	0	0	0	0	0	0	0	1	0	0	0
5	76	1	81	0	0	0	0	0	0	0	0	0	0	0	0	0	1	0	0	0
5	76	1	82	0	0	0	0	0	0	0	0	0	0	0	0	0	1	0	0	0
5	76	1	83	0	0	0	0	0	0	0	0	0	0	0	0	0	1	0	0	0
5	76	1	84	0	0	0	0	0	0	0	0	0	0	0	0	0	1	0	0	0
5	76	1	85	0	0	0	0	0	0	0	0	0	0	0	0	0	1	0	0	0
5	76	1	86	0	0	0	0	0	0	0	0	0	0	0	0	0	1	0	0	0
5	76	1	87	0	0	0	0	0	0	0	0	0	0	0	0	0	1	0	0	0
5	76	1	88	0	0	0	0	0	0	0	0	0	0	0	0	0	1	0	0	0
5	77	1	82	0	0	0	0	0	0	0	0	0	0	0	0	0	1	0	0	0
5	77	1	83	0	0	0	0	0	0	0	0	0	0	0	0	0	1	0	0	0
5	77	1	84	0	0	0	0	0	0	0	0	0	0	0	0	0	1	0	0	0
5	77	1	85	0	0	0	0	0	0	0	0	0	0	0	0	0	1	0	0	0
5	77	1	86	0	0	0	0	0	0	0	0	0	0	0	0	0	1	0	0	0
5	77	1	87	0	0	0	0	0	0	0	0	0	0	0	0	0	1	0	0	0
5	77	1	88	0	0	0	0	0	0	0	0	0	0	0	0	0	1	0	0	0
5	77	1	89	0	0	0	0	0	0	0	0	0	0	0	0	0	1	0	0	0
5	78	1	83	0	0	0	0	0	0	0	0	0	0	0	0	0	1	0	0	0
5	78	1	84	0	0	0	0	0	0	0	0	0	0	0	0	0	1	0	0	0
5	78	1	85	0	0	0	0	0	0	0	0	0	0	0	0	0	1	0	0	0
5	78	1	86	0	0	0	0	0	0	0	0	0	0	0	0	0	1	0	0	0
5	78	1	87	0	0	0	0	0	0	0	0	0	0	0	0	0	1	0	0	0
5	78	1	88	0	0	0	0	0	0	0	0	0	0	0	0	0	1	0	0	0
5	78	1	89	0	0	0	0	0	0	0	0	0	0	0	0	0	1	0	0	0
5	78	1	90	0	0	0	0	0	0	0	0	0	0	0	0	0	1	0	0	0
5	79	1	84	0	0	0	0	0	0	0	0	0	0	0	0	0	1	0	0	0
5	79	1	85	0	0	0	0	0	0	0	0	0	0	0	0	0	1	0	0	0
5	79	1	86	0	0	0	0	0	0	0	0	0	0	0	0	0	1	0	0	0
5	79	1	87	0	0	0	0	0	0	0	0	0	0	0	0	0	1	0	0	0
5	79	1	88	0	0	0	0	0	0	0	0	0	0	0	0	0	1	0	0	0
5	79	1	89	0	0	0	0	0	0	0	0	0	0	0	0	0	1	0	0	0
5	79	1	90	0	0	0	0	0	0	0	0	0	0	0	0	0	1	0	0	0
5	79	1	91	0	0	0	0	0	0	0	0	0	0	0	0	0	1	0	0	0
5	80	1	85	0	0	0	0	0	0	0	0	0	0	0	0	0	1	0	0	0
5	80	1	86	0	0	0	0	0	0	0	0	0	0	0	0	0	1	0	0	0
5	80	1	87	0	0	0	0	0	0	0	0	0	0	0	0	0	1	0	0	0
5	80	1	88	0	0	0	0	0	0	0	0	0	0	0	0	0	1	0	0	0
5	80	1	89	0	0	0	0	0	0	0	0	0	0	0	0	0	1	0	0	0
5	80	1	90	0	0	0	0	0	0	0	0	0	0	0	0	0	1	0	0	0
5	80	1	91	0	0	0	0	0	0	0	0	0	0	0	0	0	1	0	0	0
5	80	1	92	0	0	0	0	0	0	0	0	0	0	0	0	0	1	0	0	0
5	81	1	86	0	0	0	0	0	0	0	0	0	0	0	0	0	1	0	0	0
5	81	1	87	0	0	0	0	0	0	0	0	0	0	0	0	0	1	0	0	0
5	81	1	88	0	0	0	0	0	0	0	0	0	0	0	0	0	1	0	0	0
5	81	1	89	0	0	0	0	0	0	0	0	0	0	0	0	0	1	0	0	0
5	81	1	90	0	0	0	0	0	0	0	0	0	0	0	0	0	1	0	0	0
5	81	1	91	0	0	0	0	0	0	0	0	0	0	0	0	0	1	0	0	0
5	81	1	92	0	0	0	0	0	0	0	0	0	0	0	0	0	1	0	0	0
5	81	1	93	0	0	0	0	0	0	0	0	0	0	0	0	0	1	0	0	0
5	82	1	87	0	0	0	0	0	0	0	0	0	0	0	0	0	1	0	0	0
5	82	1	88	0	0	0	0	0	0	0	0	0	0	0	0	0	1	0	0	0
5	82	1	89	0	0	0	0	0	0	0	0	0	0	0	0	0	1	0	0	0
5	82	1	90	0	0	0	0	0	0	0	0	0	0	0	0	0	1	0	0	0
5	82	1	91	0	0	0	0	0	0	0	0	0	0	0	0	0	1	0	0	0
5	82	1	92	0	0	0	0	0	0	0	0	0	0	0	0	0	1	0	0	0
5	82	1	93	0	0	0	0	0	0	0	0	0	0	0	0	0	1	0	0	0
5	82	1	94	0	0	0	0	0	0	0	0	0	0	0	0	0	1	0	0	0
5	83	1	88	0	0	0	0	0	0	0	0	0	0	0	0	0	1	0	0	0
5	83	1	89	0	0	0	0	0	0	0	0	0	0	0	0	0	1	0	0	0
5	83	1	90	0	0	0	0	0	0	0	0	0	0	0	0	0	1	0	0	0
5	83	1	91	0	0	0	0	0	0	0	0	0	0	0	0	0	1	0	0	0
5	83	1	92	0	0	0	0	0	0	0	0	0	0	0	0	0	1	0	0	0
5	83	1	93	0	0	0	0	0	0	0	0	0	0	0	0	0	1	0	0	0
5	83	1	94	0	0	0	0	0	0	0	0	0	0	0	0	0	1	0	0	0
5	83	1	95	0	0	0	0	0	0	0	0	0	0	0	0	0	1	0	0	0
5	84	1	89	0	0	0	0	0	0	0	0	0	0	0	0	0	1	0	0	0
5	84	1	90	0	0	0	0	0	0	0	0	0	0	0	0	0	1	0	0	0
5	84	1	91	0	0	0	0	0	0	0	0	0	0	0	0	0	1	0	0	0
5	84	1	92	0	0	0	0	0	0	0	0	0	0	0	0	0	1	0	0	0
5	84	1	93	0	0	0	0	0	0	0	0	0	0	0	0	0	1	0	0	0
5	84	1	94	0	0	0	0	0	0	0	0	0	0	0	0	0	1	0	0	0
5	84	1	95	0	0	0	0	0	0	0	0	0	0	0	0	0	1	0	0	0
5	84	1	96	0	0	0	0	0	0	0	0	0	0	0	0	0	1	0	0	0
5	85	1	90	0	0	0	0	0	0	0	0	0	0	0	0	0	1	0	0	0
5	85	1	91	0	0	0	0	0	0	0	0	0	0	0	0	0	1	0	0	0
5	85	1	92	0	0	0	0	0	0	0	0	0	0	0	0	0	1	0	0	0
5	85	1	93	0	0	0	0	0	0	0	0	0	0	0	0	0	1	0	0	0
5	85	1	94	0	0	0	0	0	0	0	0	0	0	0	0	0	1	0	0	0
5	85	1	95	0	0	0	0	0	0	0	0	0	0	0	0	0	1	0	0	0
5	85	1	96	0	0	0	0	0	0	0	0	0	0	0	0	0	1	0	0	0
5	85	1	97	0	0	0	0	0	0	0	0	0	0	0	0	0	1	0	0	0
5	86	1	91	0	0	0	0	0	0	0	0	0	0	0	0	0	1	0	0	0
5	86	1	92	0	0	0	0	0	0	0	0	0	0	0	0	0	1	0	0	0
5	86	1	93	0	0	0	0	0	0	0	0	0	0	0	0	0	1	0	0	0
5	86	1	94	0	0	0	0	0	0	0	0	0	0	0	0	0	1	0	0	0
5	86	1	95	0	0	0	0	0	0	0	0	0	0	0	0	0	1	0	0	0
5	86	1	96	0	0	0	0	0	0	0	0	0	0	0	0	0	1	0	0	0
5	86	1	97	0	0	0	0	0	0	0	0	0	0	0	0	0	1	0	0	0
5	86	1	98	0	0	0	0	0	0	0	0	0	0	0	0	0	1	0	0	0
5	87	1	92	0	0	0	0	0	0	0	0	0	0	0	0	0	1	0	0	0
5	87	1	93	0	0	0	0	0	0	0	0	0	0	0	0	0	1	0	0	0
5	87	1	94	0	0	0	0	0	0	0	0	0	0	0	0	0	1	0	0	0
5	87	1	95	0	0	0	0	0	0	0	0	0	0	0	0	0	1	0	0	0
5	87	1	96	0	0	0	0	0	0	0	0	0	0	0	0	0	1	0	0	0
5	87	1	97	0	0	0	0	0	0	0	0	0	0	0	0	0	1	0	0	0
5	87	1	98	0	0	0	0	0	0	0	0	0	0	0	0	0	1	0	0	0
5	87	1	99	0	0	0	0	0	0	0	0	0	0	0	0	0	1	0	0	0
5	88	1	93	0	0	0	0	0	0	0	0	0	0	0	0	0	1	0	0	0
5	88	1	94	0	0	0	0	0	0	0	0	0	0	0	0	0	1	0	0	0
5	88	1	95	0	0	0	0	0	0	0	0	0	0	0	0	0	1	0	0	0
5	88	1	96	0	0	0	0	0	0	0	0	0	0	0	0	0	1	0	0	0
5	88	1	97	0	0	0	0	0	0	0	0	0	0	0	0	0	1	0	0	0
5	88	1	98	0	0	0	0	0	0	0	0	0	0	0	0	0	1	0	0	0
5	88	1	99	0	0	0	0	0	0	0	0	0	0	0	0	0	1	0	0	0
5	88	1	100	0	0	0	0	0	0	0	0	0	0	0	0	0	1	0	0	0
5	89	1	94	0	0	0	0	0	0	0	0	0	0	0	0	0	1	0	0	0
5	89	1	95	0	0	0	0	0	0	0	0	0	0	0	0	0	1	0	0	0
5	89	1	96	0	0	0	0	0	0	0	0	0	0	0	0	0	1	0	0	0
5	89	1	97	0	0	0	0	0	0	0	0	0	0	0	0	0	1	0	0	0
5	89	1	98	0	0	0	0	0	0	0	0	0	0	0	0	0	1	0	0	0
5	89	1	99	0	0	0	0	0	0	0	0	0	0	0	0	0	1	0	0	0
5	89	1	100	0	0	0	0	0	0	0	0	0	0	0	0	0	1	0	0	0
5	89	1	101	0	0	0	0	0	0	0	0	0	0	0	0	0	1	0	0	0
5	90	1	95	0	0	0	0	0	0	0	0	0	0	0	0	0	1	0	0	0
5	90	1	96	0	0	0	0	0	0	0	0	0	0	0	0	0	1	0	0	0
5	90	1	97	0	0	0	0	0	0	0	0	0	0	0	0	0	1	0	0	0
5	90	1	98	0	0	0	0	0	0	0	0	0	0	0	0	0	1	0	0	0
5	90	1	99	0	0	0	0	0	0	0	0	0	0	0	0	0	1	0	0	0
5	90	1	100	0	0	0	0	0	0	0	0	0	0	0	0	0	1	0	0	0
5	90	1	101	0	0	0	0	0	0	0	0	0	0	0	0	0	1	0	0	0
5	90	1	102	0	0	0	0	0	0	0	0	0	0	0	0	0	1	0	0	0
5	91	1	96	0	0	0	0	0	0	0	0	0	0	0	0	0	1	0	0	0
5	91	1	97	0	0	0	0	0	0	0	0	0	0	0	0	0	1	0	0	0
5	91	1	98	0	0	0	0	0	0	0	0	0	0	0	0	0	1	0	0	0
5	91	1	99	0	0	0	0	0	0	0	0	0	0	0	0	0	1	0	0	0
5	91	1	100	0	0	0	0	0	0	0	0	0	0	0	0	0	1	0	0	0
5	91	1	101	0	0	0	0	0	0	0	0	0	0	0	0	0	1	0	0	0
5	91	1	102	0	0	0	0	0	0	0	0	0	0	0	0	0	1	0	0	0
5	91	1	103	0	0	0	0	0	0	0	0	0	0	0	0	0	1	0	0	0
5	92	1	97	0	0	0	0	0	0	0	0	0	0	0	0	0	1	0	0	0
5	92	1	98	0	0	0	0	0	0	0	0	0	0	0	0	0	1	0	0	0
5	92	1	99	0	0	0	0	0	0	0	0	0	0	0	0	0	1	0	0	0
5	92	1	100	0	0	0	0	0	0	0	0	0	0	0	0	0	1	0	0	0
5	92	1	101	0	0	0	0	0	0	0	0	0	0	0	0	0	1	0	0	0
5	92	1	102	0	0	0	0	0	0	0	0	0	0	0	0	0	1	0	0	0
5	92	1	103	0	0	0	0	0	0	0	0	0	0	0	0	0	1	0	0	0
5	92	1	104	0	0	0	0	0	0	0	0	0	0	0	0	0	1	0	0	0
5	93	1	98	0	0	0	0	0	0	0	0	0	0	0	0	0	1	0	0	0
5	93	1	99	0	0	0	0	0	0	0	0	0	0	0	0	0	1	0	0	0
5	93	1	100	0	0	0	0	0	0	0	0	0	0	0	0	0	1	0	0	0
5	93	1	101	0	0	0	0	0	0	0	0	0	0	0	0	0	1	0	0	0
5	93	1	102	0	0	0	0	0	0	0	0	0	0	0	0	0	1	0	0	0
5	93	1	103	0	0	0	0	0	0	0	0	0	0	0	0	0	1	0	0	0
5	93	1	104	0	0	0	0	0	0	0	0	0	0	0	0	0	1	0	0	0
5	93	1	105	0	0	0	0	0	0	0	0	0	0	0	0	0	1	0	0	0
5	94	1	99	0	0	0	0	0	0	0	0	0	0	0	0	0	1	0	0	0
5	94	1	100	0	0	0	0	0	0	0	0	0	0	0	0	0	1	0	0	0
5	94	1	101	0	0	0	0	0	0	0	0	0	0	0	0	0	1	0	0	0
5	94	1	102	0	0	0	0	0	0	0	0	0	0	0	0	0	1	0	0	0
5	94	1	103	0	0	0	0	0	0	0	0	0	0	0	0	0	1	0	0	0
5	94	1	104	0	0	0	0	0	0	0	0	0	0	0	0	0	1	0	0	0
5	94	1	105	0	0	0	0	0	0	0	0	0	0	0	0	0	1	0	0	0
5	94	1	106	0	0	0	0	0	0	0	0	0	0	0	0	0	1	0	0	0
5	95	1	100	0	0	0	0	0	0	0	0	0	0	0	0	0	1	0	0	0
5	95	1	101	0	0	0	0	0	0	0	0	0	0	0	0	0	1	0	0	0
5	95	1	102	0	0	0	0	0	0	0	0	0	0	0	0	0	1	0	0	0
5	95	1	103	0	0	0	0	0	0	0	0	0	0	0	0	0	1	0	0	0
5	95	1	104	0	0	0	0	0	0	0	0	0	0	0	0	0	1	0	0	0
5	95	1	105	0	0	0	0	0	0	0	0	0	0	0	0	0	1	0	0	0
5	95	1	106	0	0	0	0	0	0	0	0	0	0	0	0	0	1	0	0	0
5	95	1	107	0	0	0	0	0	0	0	0	0	0	0	0	0	1	0	0	0
5	96	1	101	0	0	0	0	0	0	0	0	0	0	0	0	0	1	0	0	0
5	96	1	102	0	0	0	0	0	0	0	0	0	0	0	0	0	1	0	0	0
5	96	1	103	0	0	0	0	0	0	0	0	0	0	0	0	0	1	0	0	0
5	96	1	104	0	0	0	0	0	0	0	0	0	0	0	0	0	1	0	0	0
5	96	1	105	0	0	0	0	0	0	0	0	0	0	0	0	0	1	0	0	0
5	96	1	106	0	0	0	0	0	0	0	0	0	0	0	0	0	1	0	0	0
5	96	1	107	0	0	0	0	0	0	0	0	0	0	0	0	0	1	0	0	0
5	96	1	108	0	0	0	0	0	0	0	0	0	0	0	0	0	1	0	0	0
5	97	1	102	0	0	0	0	0	0	0	0	0	0	0	0	0	1	0	0	0
5	97	1	103	0	0	0	0	0	0	0	0	0	0	0	0	0	1	0	0	0
5	97	1	104	0	0	0	0	0	0	0	0	0	0	0	0	0	1	0	0	0
5	97	1	105	0	0	0	0	0	0	0	0	0	0	0	0	0	1	0	0	0
5	97	1	106	0	0	0	0	0	0	0	0	0	0	0	0	0	1	0	0	0
5	97	1	107	0	0	0	0	0	0	0	0	0	0	0	0	0	1	0	0	0
5	97	1	108	0	0	0	0	0	0	0	0	0	0	0	0	0	1	0	0	0
5	97	1	109	0	0	0	0	0	0	0	0	0	0	0	0	0	1	0	0	0
5	98	1	103	0	0	0	0	0	0	0	0	0	0	0	0	0	1	0	0	0
5	98	1	104	0	0	0	0	0	0	0	0	0	0	0	0	0	1	0	0	0
5	98	1	105	0	0	0	0	0	0	0	0	0	0	0	0	0	1	0	0	0
5	98	1	106	0	0	0	0	0	0	0	0	0	0	0	0	0	1	0	0	0
5	98	1	107	0	0	0	0	0	0	0	0	0	0	0	0	0	1	0	0	0
5	98	1	108	0	0	0	0	0	0	0	0	0	0	0	0	0	1	0	0	0
5	98	1	109	0	0	0	0	0	0	0	0	0	0	0	0	0	1	0	0	0
5	98	1	110	0	0	0	0	0	0	0	0	0	0	0	0	0	1	0	0	0
5	99	1	104	0	0	0	0	0	0	0	0	0	0	0	0	0	1	0	0	0
5	99	1	105	0	0	0	0	0	0	0	0	0	0	0	0	0	1	0	0	0
5	99	1	106	0	0	0	0	0	0	0	0	0	0	0	0	0	1	0	0	0
5	99	1	107	0	0	0	0	0	0	0	0	0	0	0	0	0	1	0	0	0
5	99	1	108	0	0	0	0	0	0	0	0	0	0	0	0	0	1	0	0	0
5	99	1	109	0	0	0	0	0	0	0	0	0	0	0	0	0	1	0	0	0
5	99	1	110	0	0	0	0	0	0	0	0	0	0	0	0	0	1	0	0	0
5	99	1	111	0	0	0	0	0	0	0	0	0	0	0	0	0	1	0	0	0
5	100	1	105	0	0	0	0	0	0	0	0	0	0	0	0	0	1	0	0	0
5	100	1	106	0	0	0	0	0	0	0	0	0	0	0	0	0	1	0	0	0
5	100	1	107	0	0	0	0	0	0	0	0	0	0	0	0	0	1	0	0	0
5	100	1	108	0	0	0	0	0	0	0	0	0	0	0	0	0	1	0	0	0
5	100	1	109	0	0	0	0	0	0	0	0	0	0	0	0	0	1	0	0	0
5	100	1	110	0	0	0	0	0	0	0	0	0	0	0	0	0	1	0	0	0
5	100	1	111	0	0	0	0	0	0	0	0	0	0	0	0	0	1	0	0	0
5	100	1	112	0	0	0	0	0	0	0	0	0	0	0	0	0	1	0	0	0
5	101	1	106	0	0	0	0	0	0	0	0	0	0	0	0	0	1	0	0	0
5	101	1	107	0	0	0	0	0	0	0	0	0	0	0	0	0	1	0	0	0
5	101	1	108	0	0	0	0	0	0	0	0	0	0	0	0	0	1	0	0	0
5	101	1	109	0	0	0	0	0	0	0	0	0	0	0	0	0	1	0	0	0
5	101	1	110	0	0	0	0	0	0	0	0	0	0	0	0	0	1	0	0	0
5	101	1	111	0	0	0	0	0	0	0	0	0	0	0	0	0	1	0	0	0
5	101	1	112	0	0	0	0	0	0	0	0	0	0	0	0	0	1	0	0	0
5	101	1	113	0	0	0	0	0	0	0	0	0	0	0	0	0	1	0	0	0
5	102	1	107	0	0	0	0	0	0	0	0	0	0	0	0	0	1	0	0	0
5	102	1	108	0	0	0	0	0	0	0	0	0	0	0	0	0	1	0	0	0
5	102	1	109	0	0	0	0	0	0	0	0	0	0	0	0	0	1	0	0	0
5	102	1	110	0	0	0	0	0	0	0	0	0	0	0	0	0	1	0	0	0
5	102	1	111	0	0	0	0	0	0	0	0	0	0	0	0	0	1	0	0	0
5	102	1	112	0	0	0	0	0	0	0	0	0	0	0	0	0	1	0	0	0
5	102	1	113	0	0	0	0	0	0	0	0	0	0	0	0	0	1	0	0	0
5	102	1	114	0	0	0	0	0	0	0	0	0	0	0	0	0	1	0	0	0
5	103	1	108	0	0	0	0	0	0	0	0	0	0	0	0	0	1	0	0	0
5	103	1	109	0	0	0	0	0	0	0	0	0	0	0	0	0	1	0	0	0
5	103	1	110	0	0	0	0	0	0	0	0	0	0	0	0	0	1	0	0	0
5	103	1	111	0	0	0	0	0	0	0	0	0	0	0	0	0	1	0	0	0
5	103	1	112	0	0	0	0	0	0	0	0	0	0	0	0	0	1	0	0	0
5	103	1	113	0	0	0	0	0	0	0	0	0	0	0	0	0	1	0	0	0
5	103	1	114	0	0	0	0	0	0	0	0	0	0	0	0	0	1	0	0	0
5	103	1	115	0	0	0	0	0	0	0	0	0	0	0	0	0	1	0	0	0
5	104	1	109	0	0	0	0	0	0	0	0	0	0	0	0	0	1	0	0	0
5	104	1	110	0	0	0	0	0	0	0	0	0	0	0	0	0	1	0	0	0
5	104	1	111	0	0	0	0	0	0	0	0	0	0	0	0	0	1	0	0	0
5	104	1	112	0	0	0	0	0	0	0	0	0	0	0	0	0	1	0	0	0
5	104	1	113	0	0	0	0	0	0	0	0	0	0	0	0	0	1	0	0	0
5	104	1	114	0	0	0	0	0	0	0	0	0	0	0	0	0	1	0	0	0
5	104	1	115	0	0	0	0	0	0	0	0	0	0	0	0	0	1	0	0	0
5	104	1	116	0	0	0	0	0	0	0	0	0	0	0	0	0	1	0	0	0
5	105	1	110	0	0	0	0	0	0	0	0	0	0	0	0	0	1	0	0	0
5	105	1	111	0	0	0	0	0	0	0	0	0	0	0	0	0	1	0	0	0
5	105	1	112	0	0	0	0	0	0	0	0	0	0	0	0	0	1	0	0	0
5	105	1	113	0	0	0	0	0	0	0	0	0	0	0	0	0	1	0	0	0
5	105	1	114	0	0	0	0	0	0	0	0	0	0	0	0	0	1	0	0	0
5	105	1	115	0	0	0	0	0	0	0	0	0	0	0	0	0	1	0	0	0
5	105	1	116	0	0	0	0	0	0	0	0	0	0	0	0	0	1	0	0	0
5	105	1	117	0	0	0	0	0	0	0	0	0	0	0	0	0	1	0	0	0
5	106	1	111	0	0	0	0	0	0	0	0	0	0	0	0	0	1	0	0	0
5	106	1	112	0	0	0	0	0	0	0	0	0	0	0	0	0	1	0	0	0
5	106	1	113	0	0	0	0	0	0	0	0	0	0	0	0	0	1	0	0	0
5	106	1	114	0	0	0	0	0	0	0	0	0	0	0	0	0	1	0	0	0
5	106	1	115	0	0	0	0	0	0	0	0	0	0	0	0	0	1	0	0	0
5	106	1	116	0	0	0	0	0	0	0	0	0	0	0	0	0	1	0	0	0
5	106	1	117	0	0	0	0	0	0	0	0	0	0	0	0	0	1	0	0	0
5	106	1	118	0	0	0	0	0	0	0	0	0	0	0	0	0	1	0	0	0
5	107	1	112	0	0	0	0	0	0	0	0	0	0	0	0	0	1	0	0	0
5	107	1	113	0	0	0	0	0	0	0	0	0	0	0	0	0	1	0	0	0
5	107	1	114	0	0	0	0	0	0	0	0	0	0	0	0	0	1	0	0	0
5	107	1	115	0	0	0	0	0	0	0	0	0	0	0	0	0	1	0	0	0
5	107	1	116	0	0	0	0	0	0	0	0	0	0	0	0	0	1	0	0	0
5	107	1	117	0	0	0	0	0	0	0	0	0	0	0	0	0	1	0	0	0
5	107	1	118	0	0	0	0	0	0	0	0	0	0	0	0	0	1	0	0	0
5	107	1	119	0	0	0	0	0	0	0	0	0	0	0	0	0	1	0	0	0
5	108	1	113	0	0	0	0	0	0	0	0	0	0	0	0	0	1	0	0	0
5	108	1	114	0	0	0	0	0	0	0	0	0	0	0	0	0	1	0	0	0
5	108	1	115	0	0	0	0	0	0	0	0	0	0	0	0	0	1	0	0	0
5	108	1	116	0	0	0	0	0	0	0	0	0	0	0	0	0	1	0	0	0
5	108	1	117	0	0	0	0	0	0	0	0	0	0	0	0	0	1	0	0	0
5	108	1	118	0	0	0	0	0	0	0	0	0	0	0	0	0	1	0	0	0
5	108	1	119	0	0	0	0	0	0	0	0	0	0	0	0	0	1	0	0	0
5	108	1	120	0	0	0	0	0	0	0	0	0	0	0	0	0	1	0	0	0
5	109	1	114	0	0	0	0	0	0	0	0	0	0	0	0	0	1	0	0	0
5	109	1	115	0	0	0	0	0	0	0	0	0	0	0	0	0	1	0	0	0
5	109	1	116	0	0	0	0	0	0	0	0	0	0	0	0	0	1	0	0	0
5	109	1	117	0	0	0	0	0	0	0	0	0	0	0	0	0	1	0	0	0
5	109	1	118	0	0	0	0	0	0	0	0	0	0	0	0	0	1	0	0	0
5	109	1	119	0	0	0	0	0	0	0	0	0	0	0	0	0	1	0	0	0
5	109	1	120	0	0	0	0	0	0	0	0	0	0	0	0	0	1	0	0	0
5	110	1	115	0	0	0	0	0	0	0	0	0	0	0	0	0	1	0	0	0
5	110	1	116	0	0	0	0	0	0	0	0	0	0	0	0	0	1	0	0	0
5	110	1	117	0	0	0	0	0	0	0	0	0	0	0	0	0	1	0	0	0
5	110	1	118	0	0	0	0	0	0	0	0	0	0	0	0	0	1	0	0	0
5	110	1	119	0	0	0	0	0	0	0	0	0	0	0	0	0	1	0	0	0
5	110	1	120	0	0	0	0	0	0	0	0	0	0	0	0	0	1	0	0	0
5	111	1	116	0	0	0	0	0	0	0	0	0	0	0	0	0	1	0	0	0
5	111	1	117	0	0	0	0	0	0	0	0	0	0	0	0	0	1	0	0	0
5	111	1	118	0	0	0	0	0	0	0	0	0	0	0	0	0	1	0	0	0
5	111	1	119	0	0	0	0	0	0	0	0	0	0	0	0	0	1	0	0	0
5	111	1	120	0	0	0	0	0	0	0	0	0	0	0	0	0	1	0	0	0
5	112	1	117	0	0	0	0	0	0	0	0	0	0	0	0	0	1	0	0	0
5	112	1	118	0	0	0	0	0	0	0	0	0	0	0	0	0	1	0	0	0
5	112	1	119	0	0	0	0	0	0	0	0	0	0	0	0	0	1	0	0	0
5	112	1	120	0	0	0	0	0	0	0	0	0	0	0	0	0	1	0	0	0
5	113	1	118	0	0	0	0	0	0	0	0	0	0	0	0	0	1	0	0	0
5	113	1	119	0	0	0	0	0	0	0	0	0	0	0	0	0	1	0	0	0
5	113	1	120	0	0	0	0	0	0	0	0	0	0	0	0	0	1	0	0	0
5	114	1	119	0	0	0	0	0	0	0	0	0	0	0	0	0	1	0	0	0
5	114	1	120	0	0	0	0	0	0	0	0	0	0	0	0	0	1	0	0	0
5	115	1	120	0	0	0	0	0	0	0	0	0	0	0	0	0	1	0	0	0